% File represents an instance of a Composite Structure problem to be solved by a CP framework
% Created on 2025-03-26 10:41:17.193
T = 50;
n = 9;
m = 12;
edges = [(1, 2),
(4, 5),
(7, 8),
(3, 2),
(6, 5),
(9, 8),
(4, 1),
(7, 4),
(5, 2),
(8, 5),
(6, 3),
(9, 6)];
counts = [|8, 16, 8, 6,
|8, 14, 8, 6,
|8, 18, 8, 8,
|8, 20, 8, 8,
|8, 20, 8, 6,
|8, 22, 8, 8,
|8, 20, 8, 14,
|8, 20, 8, 10,
|8, 22, 8, 10|];
